; QueryHash 7107257491856737578
(set-logic QF_AUFBV )
(declare-fun arg00 () (Array (_ BitVec 32) (_ BitVec 8) ) )
(assert (let ( (?B1 (select  arg00 (_ bv2 32) ) ) ) (let ( (?B2 (=  (_ bv110 8) ?B1 ) ) ) (and  (and  ?B2 (=  false (=  (_ bv0 8) ?B1 ) ) ) (or  (=  (_ bv69 8) ?B1 ) (or  ?B2 (=  (_ bv101 8) ?B1 ) ) ) ) ) ) )
(check-sat)
(exit)

; Assignments 3682 ms
; { "arg00": [0, 0, 0, 0, 0, 0, 1, 0, 0, 0, 0] }
; { "arg00": [0, 0, 0, 0, 0, 1, 0, 0, 0, 0, 0] }
; { "arg00": [0, 0, 0, 0, 0, 101, 0, 0, 0, 0, 0] }
; { "arg00": [0, 0, 0, 0, 0, 110, 0, 0, 0, 0, 0] }
; { "arg00": [0, 0, 0, 0, 0, 112, 0, 0, 0, 0, 0] }
; { "arg00": [0, 0, 0, 0, 0, 69, 0, 0, 0, 0, 0] }
; { "arg00": [0, 0, 0, 0, 1, 0, 0, 0, 0, 0, 0] }
; { "arg00": [0, 0, 0, 0, 101, 0, 0, 0, 0, 0, 0] }
; { "arg00": [0, 0, 0, 0, 108, 0, 0, 0, 0, 0, 0] }
; { "arg00": [0, 0, 0, 0, 110, 0, 0, 0, 0, 0, 0] }
; { "arg00": [0, 0, 0, 0, 114, 0, 0, 0, 0, 0, 0] }
; { "arg00": [0, 0, 0, 0, 69, 0, 0, 0, 0, 0, 0] }
; { "arg00": [0, 0, 0, 1, 0, 0, 0, 0, 0, 0, 0] }
; { "arg00": [0, 0, 0, 101, 0, 0, 0, 0, 0, 0, 0] }
; { "arg00": [0, 0, 0, 110, 0, 0, 0, 0, 0, 0, 0] }
; { "arg00": [0, 0, 0, 69, 0, 0, 0, 0, 0, 0, 0] }
; { "arg00": [0, 0, 1, 0, 0, 0, 0, 0, 0, 0, 0] }
; { "arg00": [0, 0, 101, 0, 0, 0, 0, 0, 0, 0, 0] }
; { "arg00": [0, 0, 104, 0, 0, 0, 0, 0, 0, 0, 0] }
; { "arg00": [0, 0, 110, 0, 0, 0, 0, 0, 0, 0, 0] }
; { "arg00": [0, 0, 69, 0, 0, 0, 0, 0, 0, 0, 0] }
; { "model_version": [1, 0, 0, 0] }
